%
% This is much harder...
%
num_jobs = 20;
num_workers = 20;
duration = [30,10,15,15,20,10,10,45,20, 10,10,20,30,40,50,30,20,10,15,25];
resource = [ 3, 1, 3, 2, 4, 2, 2, 4, 3,  2, 2, 2, 3, 3, 4, 1, 1, 2, 2,  2];
max_time = 100; % optimal: 60 (for 20 workers)
allow_idle = true;
collect_workers = true;
do_precendences = false;
num_precedences = 1;
precedences = array2d(1..num_precedences, 1..2, 
[ 
  0,0 % dummy precedence
]);
